W=6;
H=5;

MAX_TIME=22;
MAX_TRACKS=9;

TARGET=(3,6);

TRAINS=[(4,6,LEFT),(2,6,LEFT)];

INIT_POS=[
(2,4,STRAIGHT_RL),
(2,5,STRAIGHT_RL),
(2,6,STRAIGHT_RL),
(3,2,STRAIGHT_RL),
(3,3,STRAIGHT_RL),
(3,4,STRAIGHT_RL),
(3,5,STRAIGHT_RL),
(3,6,STRAIGHT_RL),
(4,3,STRAIGHT_RL),
(4,4,SWITCH_R_L_D),
(4,6,STRAIGHT_RL),
];
TUNNEL_PAIRS=[];

GATES=[
(2,4,2,false),
(4,3,1,false),
];
ACTIVATIONS=[
(2,5,1),
(4,4,2),
];

DSWITCHES=[];

STATIONS=[];
